container/Задача_максимизации_Гамильтониана-pulp.mps
*SENSE:Maximize
NAME          MODEL
ROWS
 N  OBJ
 L  C0000000
 L  C0000001
 L  C0000002
 L  C0000003
 L  C0000004
 L  C0000005
 L  C0000006
COLUMNS
    MARK      'MARKER'                 'INTORG'
    X0000000  C0000000   1.000000000000e+00
    X0000000  C0000001   1.000000000000e+00
    X0000000  C0000005  -1.000000000000e+00
    X0000000  OBJ        2.704502900800e+10
    MARK      'MARKER'                 'INTEND'
    X0000001  C0000002   1.000000000000e+00
    X0000001  C0000005   1.000000000000e+00
    X0000001  OBJ        7.906115480218e-03
    MARK      'MARKER'                 'INTORG'
    X0000002  C0000000   1.000000000000e+00
    X0000002  C0000003   1.000000000000e+00
    X0000002  OBJ        2.704502900800e+10
    MARK      'MARKER'                 'INTEND'
    X0000003  C0000004   1.000000000000e+00
    X0000003  C0000006   1.000000000000e+00
    X0000003  OBJ        7.906115480218e-03
RHS
    RHS       C0000000   1.000000000000e+00
    RHS       C0000001   1.000000000000e+00
    RHS       C0000002   1.000000000000e+06
    RHS       C0000003   1.000000000000e+00
    RHS       C0000004   1.000000000000e+06
    RHS       C0000005   0.000000000000e+00
    RHS       C0000006   0.000000000000e+00
BOUNDS
 BV BND       X0000000
 UP BND       X0000001   1.000000000000e+00
 FX BND       X0000002   0.000000000000e+00
 FX BND       X0000003   0.000000000000e+00
ENDATA
