container/Задача_максимизации_Гамильтониана-pulp.sol
Optimal - objective value 27045029008.00790787
      0 C0000000               1                      -0
      1 C0000001               1                      -0
      2 C0000002               1                      -0
      3 C0000003               0                      -0
      4 C0000004               0                      -0
      5 C0000005               0                      -0
      6 C0000006               0                      -0
      0 X0000000               1           2.7045029e+10
      1 X0000001               1            0.0079061155
      2 X0000002               0           2.7045029e+10
      3 X0000003               0            0.0079061155
